c FILE /home/rafael/Documents/HappySet/MIHS/inputs/happygen/output/graph_scale_free_k5_p0.5_v50_20241127_082451.txt
c SOURCE This is a scale-free graph formed for the happy graph colouring problem.
c DESCRIPTION It was generated using the problem generator of Rhyd Lewis
c
c GRAPH STATS
c Seed                             = 786552232
c Number of Nodes                  = 50
c Number of colours k              = 5
c Number of pre-assignments        = 25
c Number of links per new node     = 5
c Density                          = 0.191837
c 
c The degrees of nodes 1 to 50, respectively, are as follows 
c [27, 23, 22, 21, 20, 17, 17, 16, 16, 14, 14, 13, 10, 10, 9, 9, 9, 9, 8, 8, 8, 8, 8, 7, 7, 7, 
c  7, 7, 6, 6, 6, 6, 6, 6, 6, 6, 6, 5, 5, 5, 5, 5, 5, 5, 5, 5, 5, 5, 5, 5] 
c  
p edge 50 235 5
e 1 2
e 1 3
e 1 4
e 1 5
e 1 6
e 1 7
e 1 8
e 1 9
e 1 10
e 1 11
e 1 12
e 1 13
e 1 14
e 1 15
e 1 16
e 1 17
e 1 18
e 1 19
e 1 21
e 1 22
e 1 23
e 1 34
e 1 35
e 1 36
e 1 38
e 1 44
e 1 47
e 2 3
e 2 4
e 2 5
e 2 6
e 2 7
e 2 8
e 2 9
e 2 12
e 2 13
e 2 14
e 2 15
e 2 23
e 2 26
e 2 28
e 2 29
e 2 37
e 2 42
e 2 43
e 2 44
e 2 45
e 2 46
e 2 47
e 3 4
e 3 5
e 3 6
e 3 7
e 3 8
e 3 9
e 3 10
e 3 13
e 3 15
e 3 21
e 3 22
e 3 24
e 3 25
e 3 30
e 3 34
e 3 37
e 3 39
e 3 40
e 3 46
e 3 49
e 4 5
e 4 6
e 4 8
e 4 10
e 4 12
e 4 14
e 4 19
e 4 20
e 4 21
e 4 22
e 4 24
e 4 25
e 4 27
e 4 31
e 4 33
e 4 38
e 4 40
e 4 41
e 5 7
e 5 8
e 5 11
e 5 13
e 5 15
e 5 17
e 5 20
e 5 24
e 5 25
e 5 27
e 5 29
e 5 30
e 5 36
e 5 43
e 5 47
e 5 48
e 6 8
e 6 9
e 6 12
e 6 16
e 6 19
e 6 20
e 6 22
e 6 32
e 6 33
e 6 38
e 6 41
e 6 42
e 6 45
e 7 8
e 7 10
e 7 13
e 7 16
e 7 21
e 7 23
e 7 24
e 7 29
e 7 30
e 7 39
e 7 40
e 7 43
e 7 47
e 8 9
e 8 12
e 8 14
e 8 26
e 8 29
e 8 31
e 8 38
e 8 41
e 8 43
e 9 11
e 9 14
e 9 15
e 9 16
e 9 21
e 9 23
e 9 24
e 9 25
e 9 26
e 9 35
e 9 39
e 10 11
e 10 15
e 10 17
e 10 19
e 10 20
e 10 25
e 10 28
e 10 38
e 10 42
e 10 46
e 11 14
e 11 16
e 11 18
e 11 26
e 11 28
e 11 31
e 11 33
e 11 39
e 11 40
e 11 41
e 12 17
e 12 22
e 12 27
e 12 29
e 12 31
e 12 32
e 12 45
e 12 49
e 13 19
e 13 20
e 13 33
e 13 39
e 13 48
e 14 18
e 14 35
e 14 36
e 14 47
e 15 30
e 15 33
e 15 34
e 16 23
e 16 34
e 16 45
e 16 48
e 17 20
e 17 32
e 17 34
e 17 35
e 17 37
e 18 19
e 18 25
e 18 28
e 18 35
e 18 48
e 18 49
e 19 27
e 19 45
e 20 26
e 20 30
e 21 32
e 21 41
e 21 42
e 22 27
e 22 32
e 22 50
e 23 37
e 23 44
e 23 50
e 24 36
e 24 43
e 25 31
e 26 40
e 26 46
e 27 42
e 27 48
e 28 31
e 28 44
e 28 50
e 29 50
e 30 36
e 32 49
e 33 37
e 34 44
e 35 49
e 36 46
e 37 50
n 12 2
n 14 1
n 15 5
n 16 3
n 19 1
n 20 3
n 22 2
n 25 3
n 26 3
n 28 4
n 29 2
n 32 2
n 33 5
n 35 1
n 36 1
n 37 5
n 38 5
n 39 4
n 40 3
n 41 1
n 42 4
n 43 2
n 44 4
n 47 1
n 48 3
